0 14 21
1 17 21
2 8 22
3 18 18
4 14 17
5 15 16
6 13 14
7 14 14
8 14 16
9 14 15
10 11 12
11 12 12
12 10 10
13 6 11
14 8 10
15 10 10
16 7 7
17 7 9
18 2 9
19 7 8
20 3 7
21 1 4
22 2 2
23 2 2
24 1 1
25 1 1

